c User generated cnf file
p cnf 14 66
5 -14 12 0 
6 -10 13 0 
-9 3 3 0 
10 9 -3 0 
10 -10 12 0 
14 12 -5 0 
-3 11 9 0 
13 -5 6 0 
10 4 -14 0 
-8 2 1 0 
13 -5 13 0 
-3 11 13 0 
11 8 -3 0 
-10 6 2 0 
9 -2 2 0 
11 -7 4 0 
14 8 -2 0 
13 -14 11 0 
-13 3 6 0 
-6 7 6 0 
2 -10 10 0 
2 13 -8 0 
-12 8 2 0 
3 8 -1 0 
-1 9 7 0 
10 6 -12 0 
-4 12 5 0 
14 5 -6 0 
-4 1 11 0 
13 11 -9 0 
-8 13 9 0 
-11 5 6 0 
3 10 -4 0 
1 11 -8 0 
6 -3 1 0 
5 4 -3 0 
1 14 -5 0 
6 -1 14 0 
11 13 -9 0 
8 2 -2 0 
7 5 -10 0 
12 6 -2 0 
14 5 -9 0 
7 -5 10 0 
7 1 -2 0 
7 -5 6 0 
9 1 -10 0 
-7 12 14 0 
4 -3 7 0 
-6 1 13 0 
-14 5 9 0 
8 -11 7 0 
4 -9 4 0 
13 -1 4 0 
-11 12 8 0 
12 -3 11 0 
13 -5 14 0 
-9 13 6 0 
-7 10 14 0 
2 12 -7 0 
10 9 -13 0 
-11 4 1 0 
14 14 -4 0 
-13 6 2 0 
12 12 -3 0 
1 -4 5 0 
